2355,2382,2383,2384,2410,2411,2412,2438,2747,2748,2773,2774,2775,2776,2800,2801,2802,2803,3140,3165,3166,3167,3168,3192;1184,1575,1576,1603,1604,1964,1965,1966,1967,1968,1992,1993,1994,1995,1996,2020,2021,2022,2023,2024,2049,2356,2357,2358,2359,2360,2385,2386,2387,2388,2413,2414,2749,2750,2751,2752,2777,2778,2779,3141,3142,3143;2361,2389,2753,3144;794,822,1185,1186,1187,1212,1213,1214,1215,1242,1577,1578,1579,1605,1606,1607,1633,1634,1969,1970,1971,1997,1998,1999,2025,2362,2390;404,405,431,432,433,460,795,796,797,823,824,825,851,852,1188,1216,1217,1243,1244,1580,1608;41,406,434,461,462,798,826,827,853,854,855,1245,1635;42,45,46,70,407,435,436,437,463